1618865
0 23 54636
23 10 268604
10 15 17050
15 28 55904
28 29 57184
29 6 194909
6 2 5029
2 26 4945
26 11 88213
11 7 61690
7 22 183267
22 9 54017
9 16 52694
16 20 136053
20 14 19591
14 5 10550
5 1 7286
1 27 6275
27 3 9482
3 8 8395
8 17 9870
17 12 6303
12 24 1644
24 4 8627
4 13 14272
13 25 12452
25 21 11584
21 18 8375
18 19 59143
19 0 190821
